c "320617.clq"
p edge 80 304
e 1 5
e 1 6
e 1 9
e 1 10
e 1 13
e 1 14
e 1 16
e 1 17
e 1 18
e 1 22
e 1 25
e 1 27
e 1 31
e 1 32
e 1 39
e 1 41
e 1 47
e 1 50
e 1 56
e 1 57
e 1 60
e 1 72
e 1 74
e 1 77
e 1 80
e 2 5
e 2 6
e 2 7
e 2 8
e 2 15
e 2 39
e 2 41
e 2 53
e 2 80
e 3 5
e 3 6
e 3 7
e 3 10
e 3 11
e 3 12
e 3 15
e 3 17
e 3 18
e 3 19
e 3 27
e 3 28
e 3 30
e 3 32
e 3 33
e 3 44
e 3 46
e 3 48
e 3 51
e 3 55
e 3 63
e 3 64
e 3 67
e 4 5
e 4 9
e 4 19
e 4 52
e 4 58
e 5 6
e 5 7
e 5 8
e 5 10
e 5 11
e 5 13
e 5 14
e 5 20
e 5 30
e 5 31
e 5 32
e 5 34
e 5 38
e 5 40
e 5 54
e 5 58
e 5 70
e 5 71
e 5 73
e 5 79
e 6 7
e 6 8
e 6 9
e 6 11
e 6 12
e 6 13
e 6 15
e 6 16
e 6 17
e 6 18
e 6 23
e 6 25
e 6 26
e 6 28
e 6 29
e 6 30
e 6 33
e 6 34
e 6 40
e 6 46
e 6 51
e 6 53
e 6 61
e 6 66
e 7 8
e 7 9
e 7 10
e 7 14
e 7 22
e 7 26
e 7 31
e 7 37
e 7 39
e 7 57
e 7 58
e 7 59
e 7 61
e 7 65
e 7 67
e 7 68
e 7 78
e 8 11
e 8 47
e 8 61
e 9 18
e 9 22
e 9 25
e 9 31
e 9 43
e 9 49
e 10 12
e 10 21
e 10 23
e 10 24
e 10 28
e 10 36
e 10 37
e 10 47
e 10 71
e 10 78
e 10 79
e 11 12
e 11 13
e 11 20
e 11 36
e 11 75
e 12 15
e 12 17
e 12 19
e 12 28
e 12 36
e 12 41
e 12 55
e 12 57
e 12 64
e 12 69
e 12 72
e 12 80
e 13 14
e 13 16
e 13 20
e 13 21
e 13 24
e 13 35
e 13 37
e 13 44
e 13 59
e 13 64
e 13 74
e 13 75
e 13 76
e 14 16
e 14 19
e 14 21
e 14 29
e 14 30
e 14 35
e 14 37
e 14 43
e 14 45
e 14 48
e 14 66
e 14 71
e 14 73
e 14 76
e 15 42
e 15 43
e 16 49
e 16 60
e 16 62
e 16 75
e 17 21
e 17 25
e 17 32
e 17 42
e 17 44
e 17 53
e 17 73
e 18 20
e 18 22
e 18 24
e 18 78
e 19 29
e 19 33
e 20 26
e 20 58
e 21 23
e 21 26
e 21 27
e 21 35
e 21 50
e 21 61
e 21 63
e 21 69
e 21 71
e 21 76
e 22 23
e 22 24
e 22 40
e 22 53
e 22 54
e 22 72
e 22 74
e 23 73
e 24 36
e 24 49
e 25 27
e 25 34
e 25 38
e 25 48
e 25 60
e 25 65
e 25 67
e 26 69
e 26 77
e 27 29
e 28 34
e 28 35
e 28 45
e 28 48
e 28 57
e 28 70
e 28 79
e 29 52
e 29 76
e 29 80
e 30 40
e 30 44
e 30 68
e 31 38
e 31 39
e 31 51
e 32 33
e 32 46
e 32 55
e 32 68
e 34 54
e 35 38
e 35 42
e 35 45
e 35 56
e 35 59
e 35 64
e 36 42
e 37 41
e 37 43
e 37 47
e 37 51
e 37 52
e 37 55
e 37 67
e 38 63
e 38 66
e 38 68
e 40 50
e 40 52
e 40 63
e 41 46
e 41 49
e 41 56
e 41 62
e 42 50
e 43 45
e 43 54
e 43 59
e 45 56
e 45 79
e 46 60
e 49 62
e 50 70
e 51 62
e 52 70
e 54 78
e 55 65
e 55 66
e 60 65
e 62 69
e 64 75
e 68 77
e 70 72
e 70 74
e 72 77
